p tw 49 4411 2 
1 3 
1 4 
1 5 
1 6 
1 7 
1 8 
1 14 
1 15 
1 20 
1 22 
1 26 
1 29 
1 32 
1 36 
1 38 
1 43 
1 44 
2 3 
2 4 
2 5 
2 6 
2 7 
2 8 
2 9 
2 16 
2 21 
2 23 
2 27 
2 30 
2 33 
2 37 
2 39 
2 44 
2 45 
3 4 
3 5 
3 6 
3 7 
3 9 
3 10 
3 15 
3 17 
3 24 
3 28 
3 31 
3 34 
3 38 
3 40 
3 45 
3 46 
4 5 
4 6 
4 7 
4 10 
4 11 
4 16 
4 18 
4 22 
4 25 
4 32 
4 35 
4 39 
4 41 
4 46 
4 47 
5 6 
5 7 
5 11 
5 12 
5 17 
5 19 
5 23 
5 26 
5 29 
5 33 
5 40 
5 42 
5 47 
5 48 
6 7 
6 12 
6 13 
6 18 
6 20 
6 24 
6 27 
6 30 
6 34 
6 36 
6 41 
6 48 
6 49 
7 13 
7 14 
7 19 
7 21 
7 25 
7 28 
7 31 
7 35 
7 37 
7 42 
7 43 
7 49 
8 9 
8 10 
8 11 
8 12 
8 13 
8 14 
8 15 
8 21 
8 22 
8 27 
8 29 
8 33 
8 36 
8 39 
8 43 
8 45 
9 10 
9 11 
9 12 
9 13 
9 14 
9 15 
9 16 
9 23 
9 28 
9 30 
9 34 
9 37 
9 40 
9 44 
9 46 
10 11 
10 12 
10 13 
10 14 
10 16 
10 17 
10 22 
10 24 
10 31 
10 35 
10 38 
10 41 
10 45 
10 47 
11 12 
11 13 
11 14 
11 17 
11 18 
11 23 
11 25 
11 29 
11 32 
11 39 
11 42 
11 46 
11 48 
12 13 
12 14 
12 18 
12 19 
12 24 
12 26 
12 30 
12 33 
12 36 
12 40 
12 47 
12 49 
13 14 
13 19 
13 20 
13 25 
13 27 
13 31 
13 34 
13 37 
13 41 
13 43 
13 48 
14 20 
14 21 
14 26 
14 28 
14 32 
14 35 
14 38 
14 42 
14 44 
14 49 
15 16 
15 17 
15 18 
15 19 
15 20 
15 21 
15 22 
15 28 
15 29 
15 34 
15 36 
15 40 
15 43 
15 46 
16 17 
16 18 
16 19 
16 20 
16 21 
16 22 
16 23 
16 30 
16 35 
16 37 
16 41 
16 44 
16 47 
17 18 
17 19 
17 20 
17 21 
17 23 
17 24 
17 29 
17 31 
17 38 
17 42 
17 45 
17 48 
18 19 
18 20 
18 21 
18 24 
18 25 
18 30 
18 32 
18 36 
18 39 
18 46 
18 49 
19 20 
19 21 
19 25 
19 26 
19 31 
19 33 
19 37 
19 40 
19 43 
19 47 
20 21 
20 26 
20 27 
20 32 
20 34 
20 38 
20 41 
20 44 
20 48 
21 27 
21 28 
21 33 
21 35 
21 39 
21 42 
21 45 
21 49 
22 23 
22 24 
22 25 
22 26 
22 27 
22 28 
22 29 
22 35 
22 36 
22 41 
22 43 
22 47 
23 24 
23 25 
23 26 
23 27 
23 28 
23 29 
23 30 
23 37 
23 42 
23 44 
23 48 
24 25 
24 26 
24 27 
24 28 
24 30 
24 31 
24 36 
24 38 
24 45 
24 49 
25 26 
25 27 
25 28 
25 31 
25 32 
25 37 
25 39 
25 43 
25 46 
26 27 
26 28 
26 32 
26 33 
26 38 
26 40 
26 44 
26 47 
27 28 
27 33 
27 34 
27 39 
27 41 
27 45 
27 48 
28 34 
28 35 
28 40 
28 42 
28 46 
28 49 
29 30 
29 31 
29 32 
29 33 
29 34 
29 35 
29 36 
29 42 
29 43 
29 48 
30 31 
30 32 
30 33 
30 34 
30 35 
30 36 
30 37 
30 44 
30 49 
31 32 
31 33 
31 34 
31 35 
31 37 
31 38 
31 43 
31 45 
32 33 
32 34 
32 35 
32 38 
32 39 
32 44 
32 46 
33 34 
33 35 
33 39 
33 40 
33 45 
33 47 
34 35 
34 40 
34 41 
34 46 
34 48 
35 41 
35 42 
35 47 
35 49 
36 37 
36 38 
36 39 
36 40 
36 41 
36 42 
36 43 
36 49 
37 38 
37 39 
37 40 
37 41 
37 42 
37 43 
37 44 
38 39 
38 40 
38 41 
38 42 
38 44 
38 45 
39 40 
39 41 
39 42 
39 45 
39 46 
40 41 
40 42 
40 46 
40 47 
41 42 
41 47 
41 48 
42 48 
42 49 
43 44 
43 45 
43 46 
43 47 
43 48 
43 49 
44 45 
44 46 
44 47 
44 48 
44 49 
45 46 
45 47 
45 48 
45 49 
46 47 
46 48 
46 49 
47 48 
47 49 
48 49 
